% Generated from MPVRP Instance: 768d53fc-02c7-4110-a2d6-b1879e0ca5f4

N_PRODS = 1;
N_DEPOT_PRODUCTS = 1;
N_GARAGES = 1;
N_REQUESTS = 10;
N_VEHICLES = 3;
N_NODES = 12;

changeover_cost = [| 0.0 |];

depot_id = [0];
depot_product = [1];
depot_stock = [37259.0];
depot_x = [26.6];
depot_y = [14.4];

garage_id = [1];
garage_x = [1.9];
garage_y = [37.7];

request_id = [2, 3, 4, 5, 6, 7, 8, 9, 10, 11];
request_product = [1, 1, 1, 1, 1, 1, 1, 1, 1, 1];
request_demand = [4322.0, 3994.0, 4279.0, 1301.0, 2543.0, 1716.0, 3681.0, 1005.0, 4825.0, 3383.0];
request_x = [77.1, 79.6, 33.5, 6.9, 19.4, 64.2, 26.9, 84.9, 72.9, 6.3];
request_y = [56.4, 32.6, 12.2, 86.0, 7.0, 52.6, 93.2, 6.4, 48.9, 97.9];

vehicle_id = [1, 2, 3];
vehicle_capacity = [6181.0, 8911.0, 8215.0];
vehicle_home_garage_raw = [1, 1, 1];
vehicle_init_product = [1, 1, 1];

dist = [| 0.0, 33.95555919139015, 65.68295060363837, 56.03784435539968, 7.242237223399962, 74.26068946623106, 10.324727599312247, 53.60037313302959, 78.8005710639206, 58.846325288840255, 57.74028056738208, 85.93218256276283
  | 33.95555919139015, 0.0, 77.49019292787958, 77.86719463291328, 40.60554149374196, 48.55810951839044, 35.33751547576598, 64.05700586196642, 60.87076473973364, 88.7056367994729, 71.87795211328715, 60.3605831648436
  | 65.68295060363837, 77.49019292787958, 0.0, 23.93094231324792, 62.085425020692256, 76.18530041943787, 75.9582121959173, 13.448048185517472, 62.243714542112606, 50.60474286072404, 8.595929269136636, 82.0663755748967
  | 56.03784435539968, 77.86719463291328, 23.93094231324792, 0.0, 50.41200253907793, 90.20448991042518, 65.4171231406579, 25.2420284446397, 80.30971298666184, 26.73069396779665, 17.623280057923377, 98.16812109845029
  | 7.242237223399962, 40.60554149374196, 62.085425020692256, 50.41200253907793, 0.0, 78.44743462982075, 15.028306624500315, 50.74100905579235, 81.26844406041006, 51.72620225765662, 53.844684045874025, 89.91290229994803
  | 74.26068946623106, 48.55810951839044, 76.18530041943787, 90.20448991042518, 78.44743462982075, 0.0, 79.98281065328975, 66.32382678947288, 21.256528408938276, 111.44577156626445, 75.7126805759775, 11.915116449284083
  | 10.324727599312247, 35.33751547576598, 75.9582121959173, 65.4171231406579, 15.028306624500315, 79.98281065328975, 0.0, 63.92495600311353, 86.52566093362131, 65.50274803395656, 67.95483794403457, 91.83909842763049
  | 53.60037313302959, 64.05700586196642, 13.448048185517472, 25.2420284446397, 50.74100905579235, 66.32382678947288, 63.92495600311353, 0.0, 55.13302095840569, 50.62538888739523, 9.454099639838796, 73.51530452905709
  | 78.8005710639206, 60.87076473973364, 62.243714542112606, 80.30971298666184, 81.26844406041006, 21.256528408938276, 86.52566093362131, 55.13302095840569, 0.0, 104.39463587752007, 63.86305661335042, 21.129363454680785
  | 58.846325288840255, 88.7056367994729, 50.60474286072404, 26.73069396779665, 51.72620225765662, 111.44577156626445, 65.50274803395656, 50.62538888739523, 104.39463587752007, 0.0, 44.16163493350309, 120.62425129301322
  | 57.74028056738208, 71.87795211328715, 8.595929269136636, 17.623280057923377, 53.844684045874025, 75.7126805759775, 67.95483794403457, 9.454099639838796, 63.86305661335042, 44.16163493350309, 0.0, 82.6834929112214
  | 85.93218256276283, 60.3605831648436, 82.0663755748967, 98.16812109845029, 89.91290229994803, 11.915116449284083, 91.83909842763049, 73.51530452905709, 21.129363454680785, 120.62425129301322, 82.6834929112214, 0.0 |];