%% ============================================================
%%  soutenances.dzn
%% ============================================================

nb_jours      = 5;
nb_heures     = 8;
nb_salles     = 3;
nb_etudiants  = 6;
nb_enseignants = 5;

% grade[e] : 1=Ingénieur, 2=Docteur, 3=MA, 4=MC, 5=Professeur
grade = [3, 4, 5, 2, 4];

% disponibilite[e, j, h]  (ENSEIGNANTS x JOURS x HEURES)
% 1 = disponible, 0 = indisponible
disponibilite = array3d(ENSEIGNANTS, JOURS, HEURES, [
%  j=1               j=2               j=3               j=4               j=5
%  h1 h2 h3 h4 h5 h6 h7 h8
   1, 1, 1, 1, 0, 0, 0, 0,   1, 1, 1, 1, 0, 0, 0, 0,   1, 1, 1, 1, 0, 0, 0, 0,   1, 1, 1, 1, 0, 0, 0, 0,   1, 1, 1, 1, 0, 0, 0, 0,  % e=1
   1, 1, 0, 0, 1, 1, 0, 0,   1, 1, 0, 0, 1, 1, 0, 0,   1, 1, 0, 0, 1, 1, 0, 0,   1, 1, 0, 0, 1, 1, 0, 0,   1, 1, 0, 0, 1, 1, 0, 0,  % e=2
   0, 1, 1, 0, 0, 1, 1, 0,   0, 1, 1, 0, 0, 1, 1, 0,   0, 1, 1, 0, 0, 1, 1, 0,   0, 1, 1, 0, 0, 1, 1, 0,   0, 1, 1, 0, 0, 1, 1, 0,  % e=3
   1, 1, 1, 1, 1, 1, 1, 1,   1, 1, 1, 1, 1, 1, 1, 1,   1, 1, 1, 1, 1, 1, 1, 1,   1, 1, 1, 1, 1, 1, 1, 1,   1, 1, 1, 1, 1, 1, 1, 1,  % e=4
   1, 0, 1, 0, 1, 0, 1, 0,   1, 0, 1, 0, 1, 0, 1, 0,   1, 0, 1, 0, 1, 0, 1, 0,   1, 0, 1, 0, 1, 0, 1, 0,   1, 0, 1, 0, 1, 0, 1, 0   % e=5
]);

% mm[t, e] = 1 si e est le maître de mémoire de t
mm = array2d(ETUDIANTS, ENSEIGNANTS, [
%  e1 e2 e3 e4 e5
   1,  0,  0,  0,  0,   % t=1
   0,  1,  0,  0,  0,   % t=2
   0,  0,  1,  0,  0,   % t=3
   0,  0,  0,  1,  0,   % t=4
   0,  1,  0,  0,  0,   % t=5
   0,  0,  0,  0,  1    % t=6
]);

% specialist[t, e] = 1 si e est spécialiste de la spécialité de t
specialist = array2d(ETUDIANTS, ENSEIGNANTS, [
%  e1 e2 e3 e4 e5
   1,  1,  0,  1,  0,   % t=1
   0,  1,  1,  0,  1,   % t=2
   1,  0,  1,  1,  0,   % t=3
   0,  1,  0,  1,  1,   % t=4
   1,  1,  0,  0,  1,   % t=5
   0,  0,  1,  1,  1    % t=6
]);
